17	4	3
23	23	23	20	37	15	59	
0	0	0	0	0	7	3	7	3	8	4	3	2	3	4
6	1	7	6	0	4	3	1	7	3	7	2	9	11
5	0	0	0	4	6	10	3	6	8	2	3	5	8	10
7	0	6	9	5	5	6	10	5	4	9	3	6	10	17
7	9	8	6	0	5	1	4	6	9	3	1	17
100	0	5	7	0	7	5	5	4	8	2	3	7	11	13
225	5	0	3	5	7	1	5	7	7	7	1	9
225	6	5	0	8	4	2	7	7	8	4	1	12
125	6	0	0	1	8	3	10	7	7	3	2	16	17
100	5	0	9	0	6	1	3	9	7	1	1	15
50	1	10	0	5	2	4	6	6	7	3	1	17
250	0	2	7	10	8	3	4	2	10	1	1	17
7	7	0	6	8	9	4	2	5	10	10	1	14
7	5	10	0	8	8	7	2	7	4	8	2	17	17
1	4	1	3	3	10	10	9	3	8	6	1	17
3	5	5	1	10	3	10	10	9	5	6	1	17
0	0	0	0	0	2	3	9	5	5	9	0
